
Gurobi 11.0.1 (win64) logging started Mon Apr  1 12:48:24 2024

Set parameter LogFile to value "C:\Projetos\Job_Rotation_Algorithms\Outputs\GurobiLogs\gurobi_log-output-4_ton-c157-BorbaRittModel-NoExtraConstraint-2.log"
Gurobi Optimizer version 11.0.1 build v11.0.1rc0 (win64 - Windows 10.0 (19045.2))

CPU model: 11th Gen Intel(R) Core(TM) i7-1165G7 @ 2.80GHz, instruction set [SSE2|AVX|AVX2|AVX512]
Thread count: 4 physical cores, 8 logical processors, using up to 1 threads


Gurobi 11.0.1 (win64) logging started Mon Apr  1 21:36:15 2024

Set parameter LogFile to value "C:\Projetos\Job_Rotation_Algorithms\Outputs\GurobiLogs\gurobi_log-output-4_ton-c157-BorbaRittModel-NoExtraConstraint-2.log"
Gurobi Optimizer version 11.0.1 build v11.0.1rc0 (win64 - Windows 10.0 (19045.2))

CPU model: 11th Gen Intel(R) Core(TM) i7-1165G7 @ 2.80GHz, instruction set [SSE2|AVX|AVX2|AVX512]
Thread count: 4 physical cores, 8 logical processors, using up to 1 threads


Gurobi 11.0.1 (win64) logging started Thu Apr  4 23:33:44 2024

Set parameter LogFile to value "C:\Projetos\Job_Rotation_Algorithms\Outputs\GurobiLogs\gurobi_log-output-4_ton-c157-BorbaRittModel-NoExtraConstraint-2.log"
Gurobi Optimizer version 11.0.1 build v11.0.1rc0 (win64 - Windows 10.0 (19045.2))

CPU model: 11th Gen Intel(R) Core(TM) i7-1165G7 @ 2.80GHz, instruction set [SSE2|AVX|AVX2|AVX512]
Thread count: 4 physical cores, 8 logical processors, using up to 1 threads


Gurobi 11.0.1 (win64) logging started Sat Apr  6 13:03:27 2024

Set parameter LogFile to value "C:\Projetos\Job_Rotation_Algorithms\Outputs\GurobiLogs\gurobi_log-output-4_ton-c157-BorbaRittModel-NoExtraConstraint-2.log"
Gurobi Optimizer version 11.0.1 build v11.0.1rc0 (win64 - Windows 10.0 (19045.2))

CPU model: 11th Gen Intel(R) Core(TM) i7-1165G7 @ 2.80GHz, instruction set [SSE2|AVX|AVX2|AVX512]
Thread count: 4 physical cores, 8 logical processors, using up to 1 threads


Gurobi 11.0.1 (win64) logging started Sun Apr  7 02:36:12 2024

Set parameter LogFile to value "C:\Projetos\Job_Rotation_Algorithms\Outputs\GurobiLogs\gurobi_log-output-4_ton-c157-BorbaRittModel-NoExtraConstraint-2.log"
Gurobi Optimizer version 11.0.1 build v11.0.1rc0 (win64 - Windows 10.0 (19045.2))

CPU model: 11th Gen Intel(R) Core(TM) i7-1165G7 @ 2.80GHz, instruction set [SSE2|AVX|AVX2|AVX512]
Thread count: 4 physical cores, 8 logical processors, using up to 1 threads


Gurobi 11.0.1 (win64) logging started Sun Apr  7 09:49:09 2024

Set parameter LogFile to value "C:\Projetos\Job_Rotation_Algorithms\Outputs\GurobiLogs\gurobi_log-output-4_ton-c157-BorbaRittModel-NoExtraConstraint-2.log"
Gurobi Optimizer version 11.0.1 build v11.0.1rc0 (win64 - Windows 10.0 (19045.2))

CPU model: 11th Gen Intel(R) Core(TM) i7-1165G7 @ 2.80GHz, instruction set [SSE2|AVX|AVX2|AVX512]
Thread count: 4 physical cores, 8 logical processors, using up to 1 threads


Gurobi 11.0.1 (win64) logging started Tue Apr  9 08:07:47 2024

Set parameter LogFile to value "C:\Projetos\Job_Rotation_Algorithms\Outputs\GurobiLogs\gurobi_log-output-4_ton-c157-BorbaRittModel-NoExtraConstraint-2.log"
Gurobi Optimizer version 11.0.1 build v11.0.1rc0 (win64 - Windows 10.0 (19045.2))

CPU model: 11th Gen Intel(R) Core(TM) i7-1165G7 @ 2.80GHz, instruction set [SSE2|AVX|AVX2|AVX512]
Thread count: 4 physical cores, 8 logical processors, using up to 1 threads


Gurobi 11.0.1 (win64) logging started Wed Apr 10 17:37:28 2024

Set parameter LogFile to value "C:\Projetos\Job_Rotation_Algorithms\Outputs\GurobiLogs\gurobi_log-output-4_ton-c157-BorbaRittModel-NoExtraConstraint-2.log"
Gurobi Optimizer version 11.0.1 build v11.0.1rc0 (win64 - Windows 10.0 (19045.2))

CPU model: 11th Gen Intel(R) Core(TM) i7-1165G7 @ 2.80GHz, instruction set [SSE2|AVX|AVX2|AVX512]
Thread count: 4 physical cores, 8 logical processors, using up to 1 threads


Gurobi 11.0.1 (win64) logging started Thu Apr 11 01:42:45 2024

Set parameter LogFile to value "C:\Projetos\Job_Rotation_Algorithms\Outputs\GurobiLogs\gurobi_log-output-4_ton-c157-BorbaRittModel-NoExtraConstraint-2.log"
Gurobi Optimizer version 11.0.1 build v11.0.1rc0 (win64 - Windows 10.0 (19045.2))

CPU model: 11th Gen Intel(R) Core(TM) i7-1165G7 @ 2.80GHz, instruction set [SSE2|AVX|AVX2|AVX512]
Thread count: 4 physical cores, 8 logical processors, using up to 1 threads


Gurobi 11.0.1 (win64) logging started Sun Apr 21 02:59:20 2024

Set parameter LogFile to value "C:\Projetos\Job_Rotation_Algorithms\Outputs\GurobiLogs\gurobi_log-output-4_ton-c157-BorbaRittModel-NoExtraConstraint-2.log"
Gurobi Optimizer version 11.0.1 build v11.0.1rc0 (win64 - Windows 10.0 (19045.2))

CPU model: 11th Gen Intel(R) Core(TM) i7-1165G7 @ 2.80GHz, instruction set [SSE2|AVX|AVX2|AVX512]
Thread count: 4 physical cores, 8 logical processors, using up to 1 threads


Gurobi 11.0.1 (win64) logging started Fri Apr 26 07:41:21 2024

Set parameter LogFile to value "C:\Projetos\Job_Rotation_Algorithms\Outputs\GurobiLogs\gurobi_log-output-4_ton-c157-BorbaRittModel-NoExtraConstraint-2.log"
Gurobi Optimizer version 11.0.1 build v11.0.1rc0 (win64 - Windows 10.0 (19045.2))

CPU model: 11th Gen Intel(R) Core(TM) i7-1165G7 @ 2.80GHz, instruction set [SSE2|AVX|AVX2|AVX512]
Thread count: 4 physical cores, 8 logical processors, using up to 1 threads


Gurobi 11.0.1 (win64) logging started Sat Apr 27 04:32:50 2024

Set parameter LogFile to value "C:\Projetos\Job_Rotation_Algorithms\Outputs\GurobiLogs\gurobi_log-output-4_ton-c157-BorbaRittModel-NoExtraConstraint-2.log"
Gurobi Optimizer version 11.0.1 build v11.0.1rc0 (win64 - Windows 10.0 (19045.2))

CPU model: 11th Gen Intel(R) Core(TM) i7-1165G7 @ 2.80GHz, instruction set [SSE2|AVX|AVX2|AVX512]
Thread count: 4 physical cores, 8 logical processors, using up to 1 threads


Gurobi 11.0.1 (win64) logging started Sat Apr 27 14:50:47 2024

Set parameter LogFile to value "C:\Projetos\Job_Rotation_Algorithms\Outputs\GurobiLogs\gurobi_log-output-4_ton-c157-BorbaRittModel-NoExtraConstraint-2.log"
Gurobi Optimizer version 11.0.1 build v11.0.1rc0 (win64 - Windows 10.0 (19045.2))

CPU model: 11th Gen Intel(R) Core(TM) i7-1165G7 @ 2.80GHz, instruction set [SSE2|AVX|AVX2|AVX512]
Thread count: 4 physical cores, 8 logical processors, using up to 1 threads


Gurobi 11.0.1 (win64) logging started Tue Apr 30 06:04:23 2024

Set parameter LogFile to value "C:\Projetos\Job_Rotation_Algorithms\Outputs\GurobiLogs\gurobi_log-output-4_ton-c157-BorbaRittModel-NoExtraConstraint-2.log"
Gurobi Optimizer version 11.0.1 build v11.0.1rc0 (win64 - Windows 10.0 (19045.2))

CPU model: 11th Gen Intel(R) Core(TM) i7-1165G7 @ 2.80GHz, instruction set [SSE2|AVX|AVX2|AVX512]
Thread count: 4 physical cores, 8 logical processors, using up to 1 threads

WLS license 901038 - registered to Bitka Analytics
Optimize a model with 14739 rows, 2048 columns and 46154 nonzeros
Model fingerprint: 0xb2e6333b
Variable types: 2 continuous, 2046 integer (2046 binary)
Coefficient statistics:
  Matrix range     [1e+00, 2e+02]
  Objective range  [1e+00, 1e+00]
  Bounds range     [1e+00, 3e+02]
  RHS range        [1e+00, 3e+02]
Presolve removed 1 rows and 1 columns
Presolve time: 0.05s
Presolved: 14738 rows, 2047 columns, 46152 nonzeros
Variable types: 0 continuous, 2047 integer (2046 binary)
Root relaxation presolved: 14738 rows, 2047 columns, 46152 nonzeros


Root relaxation: objective 1.400000e+02, 3118 iterations, 0.32 seconds (0.41 work units)

    Nodes    |    Current Node    |     Objective Bounds      |     Work
 Expl Unexpl |  Obj  Depth IntInf | Incumbent    BestBd   Gap | It/Node Time

     0     0  140.00000    0  322          -  140.00000      -     -    2s
     0     0  140.00000    0  601          -  140.00000      -     -    2s
     0     0  140.00000    0  552          -  140.00000      -     -    2s
     0     0  140.00000    0  275          -  140.00000      -     -    4s
     0     0  140.00000    0  323          -  140.00000      -     -    4s
     0     0  140.00000    0  475          -  140.00000      -     -    5s
     0     0  140.00000    0  459          -  140.00000      -     -    5s
     0     0  140.00000    0  428          -  140.00000      -     -    7s
     0     0  140.00000    0  445          -  140.00000      -     -    7s
     0     0  140.00000    0  447          -  140.00000      -     -    8s
     0     0  140.00000    0  443          -  140.00000      -     -    9s
     0     0  140.00000    0  405          -  140.00000      -     -    9s
     0     0  140.00000    0  405          -  140.00000      -     -   10s
     0     2  140.00000    0  405          -  140.00000      -     -   13s
    51    51  140.00000   31  407          -  140.00000      -   241   15s
   413   249  140.00000   71  312          -  140.00000      -   130   20s
   698   366  140.00000   93  404          -  140.00000      -   142   25s
   757   396  140.00000   17  439          -  140.00000      -   140   30s
   762   399  140.00000   29  343          -  140.00000      -   139   35s
   767   403  140.00000   67  417          -  140.00000      -   138   40s
   775   408  140.00000   77  305          -  140.00000      -   137   46s
   788   419  140.00000   15  210          -  140.00000      -  98.4   51s
   871   470 infeasible   56               -  140.00000      -   103   55s
   970   509  140.00000   54  255          -  140.00000      -   115   60s
  1109   560  140.00000   54  303          -  140.00000      -   128   65s
  1250   616  140.00000   44  176          -  140.00000      -   135   70s
  1321   645  140.00000   59  141          -  140.00000      -   143   75s
  1480   697  140.00000   59  382          -  140.00000      -   153   80s
  1687   751  140.00000   50  251          -  140.00000      -   157   85s
  1858   813  140.00000   27  234          -  140.00000      -   165   90s
  2019   847 infeasible   81               -  140.00000      -   178   95s
  2304  1052 infeasible   60               -  140.00000      -   178  100s
  2507  1159  140.00000   36  315          -  140.00000      -   185  105s
  2753  1297 infeasible   54               -  140.00000      -   188  110s
  2867  1375  140.00000   48  149          -  140.00000      -   195  115s
  3056  1494  140.00000   55  288          -  140.00000      -   199  120s
  3186  1596  140.00000   54  387          -  140.00000      -   197  125s
  3455  1753 infeasible   49               -  140.00000      -   196  130s
  3626  1872  140.00000   63  291          -  140.00000      -   199  135s
  3751  1947 infeasible   72               -  140.00000      -   205  140s
  3965  2103  140.00000   58  235          -  140.00000      -   209  145s
  4230  2254  140.00000   50  245          -  140.00000      -   208  150s
  4409  2365 infeasible   63               -  140.00000      -   212  155s
  4680  2550 infeasible   50               -  140.00000      -   212  160s
  4906  2696  140.00000   40  332          -  140.00000      -   214  165s
  5156  2838  140.00000   47  271          -  140.00000      -   216  171s
  5299  2947  140.00000   65  308          -  140.00000      -   217  175s
  5640  3146  140.00000   30  171          -  140.00000      -   212  180s
  5919  3345 infeasible   58               -  140.00000      -   211  185s
  6130  3504  140.00000   74  253          -  140.00000      -   211  190s
  6385  3665  140.00000   51  282          -  140.00000      -   211  195s
  6500  3732  140.00000   81  233          -  140.00000      -   212  200s
  6714  3808  140.00000   48  322          -  140.00000      -   215  205s
  6948  3918  140.00000   52  231          -  140.00000      -   216  210s
  7110  4016  140.00000   48  251          -  140.00000      -   218  215s
  7389  4195  140.00000   45  285          -  140.00000      -   217  220s
  7615  4373 infeasible   49               -  140.00000      -   218  225s
  7925  4533  140.00000   79  203          -  140.00000      -   217  230s
  8261  4661 infeasible   54               -  140.00000      -   216  235s
  8405  4721  140.00000   30  258          -  140.00000      -   217  242s
  8550  4816  140.00000   40  202          -  140.00000      -   217  245s
  8766  4986 infeasible   80               -  140.00000      -   218  250s
  8950  5068  140.00000   69  300          -  140.00000      -   220  255s
  9221  5211 infeasible   73               -  140.00000      -   220  260s
  9524  5392  140.00000   81  209          -  140.00000      -   219  265s
  9730  5484 infeasible   89               -  140.00000      -   219  270s
  9922  5600  140.00000   53  309          -  140.00000      -   220  275s
 10136  5712  140.00000   71  342          -  140.00000      -   221  280s
 10202  5746 infeasible   93               -  140.00000      -   221  345s
 10349  5749 infeasible   64               -  140.00000      -   223  350s
 10517  5835  140.00000   74  290          -  140.00000      -   225  355s
 10691  5905  140.00000   91  329          -  140.00000      -   227  360s
 10851  5913 infeasible   57               -  140.00000      -   230  365s
 11000  5966  140.00000   94  177          -  140.00000      -   233  370s
 11266  6094 infeasible   61               -  140.00000      -   233  375s
 11457  6157  140.00000   93  250          -  140.00000      -   235  380s
 11671  6218  140.00000   69  341          -  140.00000      -   236  385s
 11829  6282  140.00000   42  328          -  140.00000      -   236  390s
 11994  6393  140.00000   49  392          -  140.00000      -   238  395s
 12223  6498  140.00000   45  306          -  140.00000      -   238  400s
 12408  6609  139.00000   87  387          -  140.00000      -   240  405s
 12622  6719 infeasible   77               -  140.00000      -   240  410s
 12730  6775  140.00000  105  236          -  140.00000      -   242  415s
 12910  6863  140.00000   81  288          -  140.00000      -   244  420s
 13016  6889  140.00000   61  138          -  140.00000      -   246  425s
 13204  6963  140.00000   71  296          -  140.00000      -   247  430s
 13293  6990  140.00000   73  332          -  140.00000      -   248  435s
 13433  7058  140.00000   97  286          -  140.00000      -   249  440s
 13568  7095 infeasible   74               -  140.00000      -   251  445s
 13716  7171  140.00000   74  368          -  140.00000      -   253  450s
 13863  7236  140.00000   92  309          -  140.00000      -   255  455s
 13996  7283  139.00000   76  323          -  140.00000      -   257  460s
 14181  7362  140.00000   82  391          -  140.00000      -   259  465s
 14292  7403  140.00000   79  299          -  140.00000      -   261  470s
 14470  7463  140.00000   65  150          -  140.00000      -   262  475s
 14707  7546  140.00000   88  316          -  140.00000      -   263  480s
 14904  7617  140.00000   78  238          -  140.00000      -   263  485s
 15053  7654  140.00000   63  344          -  140.00000      -   264  490s
 15208  7693 infeasible   87               -  140.00000      -   265  495s
 15472  7845  140.00000   76  227          -  140.00000      -   265  500s
 15774  7951 infeasible   93               -  140.00000      -   264  505s
 15966  7999  140.00000   79  288          -  140.00000      -   263  510s
 16128  8073  140.00000   88  177          -  140.00000      -   264  515s
 16330  8159  140.00000   91  207          -  140.00000      -   264  520s
 16539  8220  140.00000  102  247          -  140.00000      -   265  525s
 16732  8237  140.00000   91  181          -  140.00000      -   266  530s
 16907  8302  140.00000  102  293          -  140.00000      -   267  535s
 17111  8350  140.00000   97  250          -  140.00000      -   268  540s
 17234  8347 infeasible  108               -  140.00000      -   270  545s
 17444  8408 infeasible  113               -  140.00000      -   270  550s
 17637  8429  140.00000   50  269          -  140.00000      -   270  558s
 17651  8439 infeasible   61               -  140.00000      -   270  560s
 17845  8527 infeasible  105               -  140.00000      -   270  565s
 18046  8616 infeasible   92               -  140.00000      -   270  570s
 18258  8706  140.00000   83  329          -  140.00000      -   271  575s
 18523  8805  140.00000  101  281          -  140.00000      -   271  580s
 18823  8865  140.00000  107  396          -  140.00000      -   270  585s
 18973  8953  140.00000   85  382          -  140.00000      -   271  590s
 19202  9072  140.00000   51  195          -  140.00000      -   271  595s
 19503  9277 infeasible   65               -  140.00000      -   270  600s
 19787  9461  140.00000   73  278          -  140.00000      -   269  605s
 20030  9628 infeasible   89               -  140.00000      -   269  610s
 20296  9808  140.00000   67  319          -  140.00000      -   268  615s
 20544  9990  140.00000   29  394          -  140.00000      -   268  620s
 20826 10168  140.00000   59  387          -  140.00000      -   268  625s
 21025 10293  140.00000   48  265          -  140.00000      -   268  630s
 21357 10505  140.00000   57  312          -  140.00000      -   267  635s
 21636 10690  140.00000   64  249          -  140.00000      -   267  640s
 21843 10817  140.00000  103  265          -  140.00000      -   267  645s
 22078 10948 infeasible   55               -  140.00000      -   267  650s
 22369 11109  140.00000   92   82          -  140.00000      -   266  655s
 22526 11114  140.00000   87  232          -  140.00000      -   266  660s
 22724 11142 infeasible   93               -  140.00000      -   266  665s
 23031 11157 infeasible   87               -  140.00000      -   265  670s
 23282 11276  140.00000  102  145          -  140.00000      -   265  675s
 23483 11373  140.00000   95  260          -  140.00000      -   265  680s
 23668 11478  140.00000   94  162          -  140.00000      -   266  685s
 23911 11623 infeasible   89               -  140.00000      -   266  690s
 24252 11716  140.00000   86  120          -  140.00000      -   265  695s
 24592 11780  140.00000   94  171          -  140.00000      -   264  700s
 24595 11779  140.00000   91  156          -  140.00000      -   264  705s
 24924 11778 infeasible  105               -  140.00000      -   263  710s
 25239 11775 infeasible  111               -  140.00000      -   262  715s
 25515 11759  140.00000   61  253          -  140.00000      -   262  720s
 25789 11787 infeasible   95               -  140.00000      -   261  725s
 26054 11814  140.00000   45  262          -  140.00000      -   261  730s
 26412 12056  140.00000   98  319          -  140.00000      -   260  735s
 26725 12291 infeasible   57               -  140.00000      -   259  740s
 27056 12514  140.00000   48  234          -  140.00000      -   257  745s
 27404 12770  140.00000   67  300          -  140.00000      -   256  750s
 27587 12885 infeasible   86               -  140.00000      -   257  755s
 27780 13016 infeasible   54               -  140.00000      -   257  760s
 27937 13131  140.00000  109  247          -  140.00000      -   258  765s
 28089 13213 infeasible  104               -  140.00000      -   258  770s
 28368 13390 infeasible   62               -  140.00000      -   258  775s
 28545 13511  140.00000   77  253          -  140.00000      -   258  780s
 28822 13698  140.00000   69  234          -  140.00000      -   258  785s
 29000 13816  140.00000   56  314          -  140.00000      -   259  790s
 29245 13991 infeasible   62               -  140.00000      -   258  795s
 29449 14105 infeasible   75               -  140.00000      -   259  800s
 29634 14202  140.00000   74  335          -  140.00000      -   259  805s
 29783 14297  140.00000   99  270          -  140.00000      -   259  810s
 29804 14296  140.00000   49  207          -  140.00000      -   259  817s
 29949 14385 infeasible   50               -  140.00000      -   259  820s
 30155 14519 infeasible   42               -  140.00000      -   259  825s
 30379 14663  140.00000   86  282          -  140.00000      -   259  830s
 30628 14796  140.00000   58  329          -  140.00000      -   259  835s
 30776 14892  140.00000   72  296          -  140.00000      -   259  840s
 30996 15042  140.00000   80  250          -  140.00000      -   259  845s
 31151 15123  140.00000   82  279          -  140.00000      -   260  850s
 31345 15249  140.00000   87  263          -  140.00000      -   260  855s
 31568 15372  140.00000   87  390          -  140.00000      -   260  860s
 31822 15516  140.00000   59  365          -  140.00000      -   260  865s
 31999 15645  140.00000   67  233          -  140.00000      -   260  870s
 32167 15765  140.00000  104  249          -  140.00000      -   260  875s
 32526 16004 infeasible   74               -  140.00000      -   259  880s
 32707 16111  140.00000   94  331          -  140.00000      -   260  885s
 32960 16258 infeasible   48               -  140.00000      -   259  890s
 33215 16427 infeasible   72               -  140.00000      -   259  895s
 33494 16620  140.00000   63  239          -  140.00000      -   259  900s
 33788 16818  140.00000   60  334          -  140.00000      -   258  905s
 33916 16898  140.00000   64  218          -  140.00000      -   259  910s
 34135 17053 infeasible   92               -  140.00000      -   259  915s
 34378 17234  140.00000   75  359          -  140.00000      -   259  920s
 34552 17346 infeasible   52               -  140.00000      -   260  925s
 34749 17489  140.00000   80  241          -  140.00000      -   260  934s
 34769 17505  140.00000   88  225          -  140.00000      -   260  935s
 35065 17667 infeasible   66               -  140.00000      -   259  940s
 35210 17772  139.95237   99  424          -  140.00000      -   260  945s
 35336 17870 infeasible   94               -  140.00000      -   260  950s
 35565 18013 infeasible   49               -  140.00000      -   260  955s
 35877 18213  140.00000   38  204          -  140.00000      -   260  960s
 36129 18375 infeasible   77               -  140.00000      -   260  965s
 36408 18548  140.00000   56  145          -  140.00000      -   259  970s
 36592 18670  140.00000   85  236          -  140.00000      -   260  975s
 36829 18813 infeasible   52               -  140.00000      -   260  980s
 37049 18927 infeasible  101               -  140.00000      -   260  985s
 37284 19052  140.00000   62  276          -  140.00000      -   260  990s
 37514 19098  140.00000   89  244          -  140.00000      -   260  995s
 37767 19263  140.00000   75  395          -  140.00000      -   260 1000s
 37966 19412  140.00000   72  258          -  140.00000      -   260 1005s
 38153 19537 infeasible  103               -  140.00000      -   260 1010s
 38334 19650  140.00000   73  300          -  140.00000      -   260 1015s
 38537 19777 infeasible  117               -  140.00000      -   260 1020s
 38666 19868  140.00000   38  215          -  140.00000      -   261 1025s
 38960 20076  140.00000   89  202          -  140.00000      -   260 1030s
 39207 20241  140.00000   71  309          -  140.00000      -   260 1035s
 39380 20346 infeasible  100               -  140.00000      -   261 1040s
 39715 20583 infeasible   63               -  140.00000      -   260 1045s
 40010 20720  140.00000   63  382          -  140.00000      -   260 1050s
H40074 20756                     131.0000000  140.00000  6.87%   260 1051s
H40074 20756                     132.0000000  140.00000  6.06%   260 1051s
H40074 20756                     133.0000000  140.00000  5.26%   260 1051s
H40100 20771                     134.0000000  140.00000  4.48%   260 1052s
H40128 20780                     135.0000000  140.00000  3.70%   260 1052s
H40154 20795                     136.0000000  140.00000  2.94%   259 1052s
H40180 20805                     137.0000000  140.00000  2.19%   259 1053s
H40206 20790                     138.0000000  140.00000  1.45%   259 1053s
H40258 20711                     139.0000000  140.00000  0.72%   259 1054s
 40260 20714  140.00000   86  405  139.00000  140.00000  0.72%   259 1055s
H40261 19679                     140.0000000  140.00000  0.00%   259 1056s

Explored 40261 nodes (10589039 simplex iterations) in 1056.32 seconds (1353.73 work units)
Thread count was 1 (of 8 available processors)

Solution count 10: 140 139 138 ... 131

Optimal solution found (tolerance 1.00e-03)
Best objective 1.400000000000e+02, best bound 1.400000000000e+02, gap 0.0000%
